
Gurobi 8.1.0 (win64, Python) logging started 10/23/18 20:12:33

Academic license - for non-commercial use only
Optimize a model with 178 rows, 104 columns and 618 nonzeros
Variable types: 52 continuous, 52 integer (52 binary)
Coefficient statistics:
  Matrix range     [3e-02, 1e+12]
  Objective range  [2e+02, 2e+02]
  Bounds range     [1e+00, 1e+00]
  RHS range        [1e-01, 1e+00]
Warning: Model contains large matrix coefficient range
         Consider reformulating model or setting NumericFocus parameter
         to avoid numerical issues.
Presolve removed 36 rows and 14 columns
Presolve time: 0.01s
Presolved: 142 rows, 90 columns, 513 nonzeros
Variable types: 46 continuous, 44 integer (44 binary)
Found heuristic solution: objective 3230.0000000
Found heuristic solution: objective 3200.0000000

Root relaxation: objective 3.140000e+03, 68 iterations, 0.00 seconds

    Nodes    |    Current Node    |     Objective Bounds      |     Work
 Expl Unexpl |  Obj  Depth IntInf | Incumbent    BestBd   Gap | It/Node Time

     0     0 3140.00000    0    4 3200.00000 3140.00000  1.87%     -    0s
H    0     0                    3140.0000000 3140.00000  0.00%     -    0s

Explored 1 nodes (68 simplex iterations) in 0.12 seconds
Thread count was 8 (of 8 available processors)

Solution count 3: 3140 3200 3230 

Optimal solution found (tolerance 1.00e-04)
Best objective 3.140000000000e+03, best bound 3.140000000000e+03, gap 0.0000%

Gurobi 8.1.0 (win64, Python) logging started 10/23/18 20:18:48

Academic license - for non-commercial use only

Gurobi 8.1.0 (win64, Python) logging started 10/23/18 20:18:55

Academic license - for non-commercial use only

Gurobi 8.1.0 (win64, Python) logging started 10/23/18 20:19:08

Academic license - for non-commercial use only
Parameter OutputFlag unchanged
   Value: 1  Min: 0  Max: 1  Default: 1
Optimize a model with 178 rows, 104 columns and 618 nonzeros
Variable types: 52 continuous, 52 integer (52 binary)
Coefficient statistics:
  Matrix range     [3e-02, 1e+12]
  Objective range  [2e+02, 2e+02]
  Bounds range     [1e+00, 1e+00]
  RHS range        [1e-01, 1e+00]
Warning: Model contains large matrix coefficient range
         Consider reformulating model or setting NumericFocus parameter
         to avoid numerical issues.
Presolve removed 36 rows and 14 columns
Presolve time: 0.00s
Presolved: 142 rows, 90 columns, 513 nonzeros
Variable types: 46 continuous, 44 integer (44 binary)
Found heuristic solution: objective 3230.0000000
Found heuristic solution: objective 3200.0000000

Root relaxation: objective 3.140000e+03, 68 iterations, 0.00 seconds

    Nodes    |    Current Node    |     Objective Bounds      |     Work
 Expl Unexpl |  Obj  Depth IntInf | Incumbent    BestBd   Gap | It/Node Time

     0     0 3140.00000    0    4 3200.00000 3140.00000  1.87%     -    0s
H    0     0                    3140.0000000 3140.00000  0.00%     -    0s

Explored 1 nodes (68 simplex iterations) in 0.03 seconds
Thread count was 8 (of 8 available processors)

Solution count 3: 3140 3200 3230 

Optimal solution found (tolerance 1.00e-04)
Best objective 3.140000000000e+03, best bound 3.140000000000e+03, gap 0.0000%

Gurobi 8.1.0 (win64, Python) logging started 10/23/18 20:24:24

Academic license - for non-commercial use only
Parameter OutputFlag unchanged
   Value: 1  Min: 0  Max: 1  Default: 1
Optimize a model with 178 rows, 104 columns and 618 nonzeros
Variable types: 52 continuous, 52 integer (52 binary)
Coefficient statistics:
  Matrix range     [3e-02, 1e+12]
  Objective range  [2e+02, 2e+02]
  Bounds range     [1e+00, 1e+00]
  RHS range        [1e-01, 1e+00]
Warning: Model contains large matrix coefficient range
         Consider reformulating model or setting NumericFocus parameter
         to avoid numerical issues.
Presolve removed 36 rows and 14 columns
Presolve time: 0.00s
Presolved: 142 rows, 90 columns, 513 nonzeros
Variable types: 46 continuous, 44 integer (44 binary)
Found heuristic solution: objective 3230.0000000
Found heuristic solution: objective 3200.0000000

Root relaxation: objective 3.140000e+03, 68 iterations, 0.00 seconds

    Nodes    |    Current Node    |     Objective Bounds      |     Work
 Expl Unexpl |  Obj  Depth IntInf | Incumbent    BestBd   Gap | It/Node Time

     0     0 3140.00000    0    4 3200.00000 3140.00000  1.87%     -    0s
H    0     0                    3140.0000000 3140.00000  0.00%     -    0s

Explored 1 nodes (68 simplex iterations) in 0.02 seconds
Thread count was 8 (of 8 available processors)

Solution count 3: 3140 3200 3230 

Optimal solution found (tolerance 1.00e-04)
Best objective 3.140000000000e+03, best bound 3.140000000000e+03, gap 0.0000%

Gurobi 8.1.0 (win64, Python) logging started 10/23/18 20:24:40

Academic license - for non-commercial use only
Optimize a model with 178 rows, 104 columns and 618 nonzeros
Variable types: 52 continuous, 52 integer (52 binary)
Coefficient statistics:
  Matrix range     [3e-02, 1e+12]
  Objective range  [2e+02, 2e+02]
  Bounds range     [1e+00, 1e+00]
  RHS range        [1e-01, 1e+00]
Warning: Model contains large matrix coefficient range
         Consider reformulating model or setting NumericFocus parameter
         to avoid numerical issues.
Presolve removed 36 rows and 14 columns
Presolve time: 0.00s
Presolved: 142 rows, 90 columns, 513 nonzeros
Variable types: 46 continuous, 44 integer (44 binary)
Found heuristic solution: objective 3230.0000000
Found heuristic solution: objective 3200.0000000

Root relaxation: objective 3.140000e+03, 68 iterations, 0.00 seconds

    Nodes    |    Current Node    |     Objective Bounds      |     Work
 Expl Unexpl |  Obj  Depth IntInf | Incumbent    BestBd   Gap | It/Node Time

     0     0 3140.00000    0    4 3200.00000 3140.00000  1.87%     -    0s
H    0     0                    3140.0000000 3140.00000  0.00%     -    0s

Explored 1 nodes (68 simplex iterations) in 0.02 seconds
Thread count was 8 (of 8 available processors)

Solution count 3: 3140 3200 3230 

Optimal solution found (tolerance 1.00e-04)
Best objective 3.140000000000e+03, best bound 3.140000000000e+03, gap 0.0000%

Gurobi 8.1.0 (win64, Python) logging started 10/23/18 20:53:41

Academic license - for non-commercial use only
Optimize a model with 178 rows, 104 columns and 618 nonzeros
Variable types: 52 continuous, 52 integer (52 binary)
Coefficient statistics:
  Matrix range     [3e-02, 1e+12]
  Objective range  [2e+02, 2e+02]
  Bounds range     [1e+00, 1e+00]
  RHS range        [1e-01, 1e+00]
Warning: Model contains large matrix coefficient range
         Consider reformulating model or setting NumericFocus parameter
         to avoid numerical issues.
Presolve removed 36 rows and 14 columns
Presolve time: 0.00s
Presolved: 142 rows, 90 columns, 513 nonzeros
Variable types: 46 continuous, 44 integer (44 binary)
Found heuristic solution: objective 3230.0000000
Found heuristic solution: objective 3200.0000000

Root relaxation: objective 3.140000e+03, 68 iterations, 0.00 seconds

    Nodes    |    Current Node    |     Objective Bounds      |     Work
 Expl Unexpl |  Obj  Depth IntInf | Incumbent    BestBd   Gap | It/Node Time

     0     0 3140.00000    0    4 3200.00000 3140.00000  1.87%     -    0s
H    0     0                    3140.0000000 3140.00000  0.00%     -    0s

Explored 1 nodes (68 simplex iterations) in 0.01 seconds
Thread count was 8 (of 8 available processors)

Solution count 3: 3140 3200 3230 

Optimal solution found (tolerance 1.00e-04)
Best objective 3.140000000000e+03, best bound 3.140000000000e+03, gap 0.0000%

Gurobi 8.1.0 (win64, Python) logging started 10/23/18 20:54:17

Academic license - for non-commercial use only
Optimize a model with 178 rows, 104 columns and 618 nonzeros
Variable types: 52 continuous, 52 integer (52 binary)
Coefficient statistics:
  Matrix range     [3e-02, 1e+12]
  Objective range  [2e+02, 2e+02]
  Bounds range     [1e+00, 1e+00]
  RHS range        [1e-01, 1e+00]
Warning: Model contains large matrix coefficient range
         Consider reformulating model or setting NumericFocus parameter
         to avoid numerical issues.
Presolve removed 36 rows and 14 columns
Presolve time: 0.00s
Presolved: 142 rows, 90 columns, 513 nonzeros
Variable types: 46 continuous, 44 integer (44 binary)
Found heuristic solution: objective 3230.0000000
Found heuristic solution: objective 3200.0000000

Root relaxation: objective 3.140000e+03, 68 iterations, 0.00 seconds

    Nodes    |    Current Node    |     Objective Bounds      |     Work
 Expl Unexpl |  Obj  Depth IntInf | Incumbent    BestBd   Gap | It/Node Time

     0     0 3140.00000    0    4 3200.00000 3140.00000  1.87%     -    0s
H    0     0                    3140.0000000 3140.00000  0.00%     -    0s

Explored 1 nodes (68 simplex iterations) in 0.02 seconds
Thread count was 8 (of 8 available processors)

Solution count 3: 3140 3200 3230 

Optimal solution found (tolerance 1.00e-04)
Best objective 3.140000000000e+03, best bound 3.140000000000e+03, gap 0.0000%

Gurobi 8.1.0 (win64, Python) logging started 10/23/18 20:54:23

Academic license - for non-commercial use only
Optimize a model with 178 rows, 104 columns and 618 nonzeros
Variable types: 52 continuous, 52 integer (52 binary)
Coefficient statistics:
  Matrix range     [3e-02, 1e+12]
  Objective range  [2e+02, 2e+02]
  Bounds range     [1e+00, 1e+00]
  RHS range        [1e-01, 1e+00]
Warning: Model contains large matrix coefficient range
         Consider reformulating model or setting NumericFocus parameter
         to avoid numerical issues.
Presolve removed 36 rows and 14 columns
Presolve time: 0.00s
Presolved: 142 rows, 90 columns, 513 nonzeros
Variable types: 46 continuous, 44 integer (44 binary)
Found heuristic solution: objective 3230.0000000
Found heuristic solution: objective 3200.0000000

Root relaxation: objective 3.140000e+03, 68 iterations, 0.00 seconds

    Nodes    |    Current Node    |     Objective Bounds      |     Work
 Expl Unexpl |  Obj  Depth IntInf | Incumbent    BestBd   Gap | It/Node Time

     0     0 3140.00000    0    4 3200.00000 3140.00000  1.87%     -    0s
H    0     0                    3140.0000000 3140.00000  0.00%     -    0s

Explored 1 nodes (68 simplex iterations) in 0.03 seconds
Thread count was 8 (of 8 available processors)

Solution count 3: 3140 3200 3230 

Optimal solution found (tolerance 1.00e-04)
Best objective 3.140000000000e+03, best bound 3.140000000000e+03, gap 0.0000%

Gurobi 8.1.0 (win64, Python) logging started 10/23/18 20:54:50

Academic license - for non-commercial use only
Optimize a model with 178 rows, 104 columns and 618 nonzeros
Variable types: 52 continuous, 52 integer (52 binary)
Coefficient statistics:
  Matrix range     [3e-02, 1e+12]
  Objective range  [2e+02, 2e+02]
  Bounds range     [1e+00, 1e+00]
  RHS range        [1e-01, 1e+00]
Warning: Model contains large matrix coefficient range
         Consider reformulating model or setting NumericFocus parameter
         to avoid numerical issues.
Presolve removed 36 rows and 14 columns
Presolve time: 0.01s
Presolved: 142 rows, 90 columns, 513 nonzeros
Variable types: 46 continuous, 44 integer (44 binary)
Found heuristic solution: objective 3230.0000000
Found heuristic solution: objective 3200.0000000

Root relaxation: objective 3.140000e+03, 68 iterations, 0.00 seconds

    Nodes    |    Current Node    |     Objective Bounds      |     Work
 Expl Unexpl |  Obj  Depth IntInf | Incumbent    BestBd   Gap | It/Node Time

     0     0 3140.00000    0    4 3200.00000 3140.00000  1.87%     -    0s
H    0     0                    3140.0000000 3140.00000  0.00%     -    0s

Explored 1 nodes (68 simplex iterations) in 0.03 seconds
Thread count was 8 (of 8 available processors)

Solution count 3: 3140 3200 3230 

Optimal solution found (tolerance 1.00e-04)
Best objective 3.140000000000e+03, best bound 3.140000000000e+03, gap 0.0000%

Gurobi 8.1.0 (win64, Python) logging started 10/23/18 20:56:01

Academic license - for non-commercial use only
Optimize a model with 178 rows, 104 columns and 618 nonzeros
Variable types: 52 continuous, 52 integer (52 binary)
Coefficient statistics:
  Matrix range     [3e-02, 1e+12]
  Objective range  [2e+02, 2e+02]
  Bounds range     [1e+00, 1e+00]
  RHS range        [1e-01, 1e+00]
Warning: Model contains large matrix coefficient range
         Consider reformulating model or setting NumericFocus parameter
         to avoid numerical issues.
Presolve removed 36 rows and 14 columns
Presolve time: 0.00s
Presolved: 142 rows, 90 columns, 513 nonzeros
Variable types: 46 continuous, 44 integer (44 binary)
Found heuristic solution: objective 3230.0000000
Found heuristic solution: objective 3200.0000000

Root relaxation: objective 3.140000e+03, 68 iterations, 0.00 seconds

    Nodes    |    Current Node    |     Objective Bounds      |     Work
 Expl Unexpl |  Obj  Depth IntInf | Incumbent    BestBd   Gap | It/Node Time

     0     0 3140.00000    0    4 3200.00000 3140.00000  1.87%     -    0s
H    0     0                    3140.0000000 3140.00000  0.00%     -    0s

Explored 1 nodes (68 simplex iterations) in 0.01 seconds
Thread count was 8 (of 8 available processors)

Solution count 3: 3140 3200 3230 

Optimal solution found (tolerance 1.00e-04)
Best objective 3.140000000000e+03, best bound 3.140000000000e+03, gap 0.0000%

Gurobi 8.1.0 (win64, Python) logging started 10/23/18 21:04:29

Academic license - for non-commercial use only
Optimize a model with 178 rows, 104 columns and 618 nonzeros
Variable types: 52 continuous, 52 integer (52 binary)
Coefficient statistics:
  Matrix range     [3e-02, 1e+12]
  Objective range  [2e+02, 2e+02]
  Bounds range     [1e+00, 1e+00]
  RHS range        [1e-01, 1e+00]
Warning: Model contains large matrix coefficient range
         Consider reformulating model or setting NumericFocus parameter
         to avoid numerical issues.
Presolve removed 36 rows and 14 columns
Presolve time: 0.00s
Presolved: 142 rows, 90 columns, 513 nonzeros
Variable types: 46 continuous, 44 integer (44 binary)
Found heuristic solution: objective 3230.0000000
Found heuristic solution: objective 3200.0000000

Root relaxation: objective 3.140000e+03, 68 iterations, 0.00 seconds

    Nodes    |    Current Node    |     Objective Bounds      |     Work
 Expl Unexpl |  Obj  Depth IntInf | Incumbent    BestBd   Gap | It/Node Time

     0     0 3140.00000    0    4 3200.00000 3140.00000  1.87%     -    0s
H    0     0                    3140.0000000 3140.00000  0.00%     -    0s

Explored 1 nodes (68 simplex iterations) in 0.07 seconds
Thread count was 8 (of 8 available processors)

Solution count 3: 3140 3200 3230 

Optimal solution found (tolerance 1.00e-04)
Best objective 3.140000000000e+03, best bound 3.140000000000e+03, gap 0.0000%

Gurobi 8.1.0 (win64, Python) logging started 10/23/18 21:04:50

Academic license - for non-commercial use only

Gurobi 8.1.0 (win64, Python) logging started 10/23/18 21:05:53

Academic license - for non-commercial use only

Gurobi 8.1.0 (win64, Python) logging started 10/23/18 21:07:46

Academic license - for non-commercial use only

Gurobi 8.1.0 (win64, Python) logging started 10/23/18 21:21:18

Academic license - for non-commercial use only

Gurobi 8.1.0 (win64, Python) logging started 10/23/18 21:22:30

Academic license - for non-commercial use only

Gurobi 8.1.0 (win64, Python) logging started 10/23/18 21:23:05

Academic license - for non-commercial use only

Gurobi 8.1.0 (win64, Python) logging started 10/23/18 21:34:13

Academic license - for non-commercial use only

Gurobi 8.1.0 (win64, Python) logging started 10/23/18 21:36:54

Academic license - for non-commercial use only

Gurobi 8.1.0 (win64, Python) logging started 10/23/18 21:37:50

Academic license - for non-commercial use only

Gurobi 8.1.0 (win64, Python) logging started 10/23/18 21:38:57

Academic license - for non-commercial use only

Gurobi 8.1.0 (win64, Python) logging started 10/23/18 21:39:28

Academic license - for non-commercial use only

Gurobi 8.1.0 (win64, Python) logging started 10/23/18 21:40:24

Academic license - for non-commercial use only

Gurobi 8.1.0 (win64, Python) logging started 10/23/18 21:40:39

Academic license - for non-commercial use only

Gurobi 8.1.0 (win64, Python) logging started 10/23/18 21:40:47

Academic license - for non-commercial use only

Gurobi 8.1.0 (win64, Python) logging started 10/23/18 21:40:58

Academic license - for non-commercial use only

Gurobi 8.1.0 (win64, Python) logging started 10/23/18 21:44:50

Academic license - for non-commercial use only

Gurobi 8.1.0 (win64, Python) logging started 10/23/18 21:45:00

Academic license - for non-commercial use only

Gurobi 8.1.0 (win64, Python) logging started 10/23/18 21:45:09

Academic license - for non-commercial use only

Gurobi 8.1.0 (win64, Python) logging started 10/23/18 21:46:52

Academic license - for non-commercial use only

Gurobi 8.1.0 (win64, Python) logging started 10/24/18 13:38:58

Academic license - for non-commercial use only

Gurobi 8.1.0 (win64, Python) logging started 10/24/18 13:39:16

Academic license - for non-commercial use only

Gurobi 8.1.0 (win64, Python) logging started 11/01/18 10:44:18

Academic license - for non-commercial use only
